\ SCIP STATISTICS
\   Problem name     : CapacitatedFacilityLocation-20-10
\   Variables        : 210 (210 binary, 0 integer, 0 implicit integer, 0 continuous)
\   Constraints      : 231
Minimize
 Obj: +1222.28990530639 x0 +1008.64718204935 x1 +604.000970872871 x2 +389.65887281974 x3 +1111.97661845922 x4
      +922.986928011505 x5 +746 x6 +1142.21219462805 x7 +1007.84544177099 x8 +865.34891691854 x9 +91.6754196845304 x10
      +69.7507506566253 x11 +121.141185893801 x12 +76.7561726896173 x13 +109.15385740771 x14 +29.608782421939 x15
      +150.463471514486 x16 +56.0117533707864 x17 +126.483160102768 x18 +93.5041211562517 x19 +30.5991484085624 x20
      +82.9633661647174 x21 +51.9136853787715 x22 +63.6320206396425 x23 +22.7088551351066 x24 +53.3307326477658 x25
      +21.4770779266383 x26 +41.1508722994253 x27 +19.1239312879592 x28 +28.0361571613245 x29 +66.75248439087 x30
      +247.970359883165 x31 +151.713115847059 x32 +182.183248855648 x33 +44.3620613238174 x34 +147.036514035315 x35
      +97.0987083403526 x36 +101.881461107015 x37 +47.4697736378315 x38 +73.4425943965177 x39 +23.2656781295664 x40
      +70.0215538305264 x41 +49.6569068032816 x42 +39.1539665373971 x43 +39.0752635645911 x44 +42.741651446259 x45
      +97.2073346040234 x46 +19.8618953891792 x47 +52.7671103253538 x48 +58.4630512176585 x49 +38.2378185434299 x50
      +119.734290719098 x51 +32.4362898565947 x52 +73.8446711448655 x53 +35.1663677018375 x54 +101.948194023219 x55
      +113.095817841877 x56 +71.8062665184105 x57 +34.6200893237588 x58 +92.2509935751449 x59 +22.0024637822897 x60
      +38.161827005635 x61 +1.69740438056744 x62 +21.210538373508 x63 +23.9757392117027 x64 +41.0631009659231 x65
      +54.1677075150583 x66 +31.1884503455436 x67 +25.2485275855829 x68 +43.6463224540908 x69 +89.4510692683798 x70
      +110.035973896386 x71 +130.678959503394 x72 +107.155955655107 x73 +97.6755306223304 x74 +41.5167559858307 x75
      +96.7268469601918 x76 +61.8099480474585 x77 +109.723362588535 x78 +57.1147478918406 x79 +38.2225798536217 x80
      +75.2064193482507 x81 +48.8826724991902 x82 +32.3866715129994 x83 +56.4411495091918 x84 +63.4064661551918 x85
      +133.10990538128 x86 +39.9113111181742 x87 +71.3484431028127 x88 +87.6249643435762 x89 +187.535055587095 x90
      +337.540288225525 x91 +122.557723166784 x92 +237.914994175628 x93 +172.278948295651 x94 +326.884257669283 x95
      +317.277232868889 x96 +261.392869961929 x97 +153.631209740955 x98 +297.789889441424 x99 +20.3522364248877 x100
      +97.7186348959063 x101 +58.6540546499948 x102 +69.6246478046827 x103 +13.1898520097817 x104 +56.3496287868051 x105
      +48.8077127781781 x106 +35.9182826225422 x107 +19.6099819675635 x108 +30.9929460012629 x109 +65.0510390437846 x110
      +68.7577195203985 x111 +26.9931405546546 x112 +30.1054660794916 x113 +76.0169847775367 x114 +94.7415805681184 x115
      +150.845290438827 x116 +76.1239755823954 x117 +83.7416575999537 x118 +116.187891009171 x119 +33.3170456488391 x120
      +43.2168829056066 x121 +8.67995129688901 x122 +21.7677798404253 x123 +37.8837623446266 x124 +53.4962744224007 x125
      +78.2550105519507 x126 +42.0808117813226 x127 +40.9575862774469 x128 +61.663742029858 x129 +71.9788952479777 x130
      +118.567620401018 x131 +118.188381332765 x132 +105.171132977403 x133 +76.3660938572774 x134 +44.8068540445075 x135
      +67.4899281296071 x136 +51.6492649713111 x137 +86.5500747963091 x138 +29.4522319668572 x139 +23.0827999589749 x140
      +58.0788743397216 x141 +24.1824336491078 x142 +40.9262647168333 x143 +17.9318947895924 x144 +47.7584658468175 x145
      +38.9090026260168 x146 +36.294899837983 x147 +12.7965851354391 x148 +37.8559783079122 x149 +33.7650777850627 x150
      +26.9347680216497 x151 +40.4818591873336 x152 +16.6465650852326 x153 +43.9276149755223 x154 +25.9778355566681 x155
      +78.765190066924 x156 +23.2889454769644 x157 +52.6052742463092 x158 +50.8827174677767 x159 +89.0143133429693 x160
      +169.235068790682 x161 +34.0857602830623 x162 +106.632957415144 x163 +87.9311938249162 x164 +169.953933499683 x165
      +193.665939871046 x166 +130.658387798001 x167 +85.1887385017187 x168 +165.917685318304 x169 +13.6132250947792 x170
      +72.3199966508785 x171 +41.6751031144569 x172 +40.9262173684192 x173 +28.1769359472713 x174 +46.4847667862984 x175
      +85.8240388255688 x176 +22.899488094733 x177 +40.5851472105305 x178 +53.03452487261 x179 +74.833320809134 x180
      +189.532569465457 x181 +68.1992757983726 x182 +129.081549375543 x183 +60.9342447183697 x184 +161.330235348041 x185
      +146.514565040534 x186 +121.131886696554 x187 +47.4948251122068 x188 +134.920457584892 x189 +128.979539163231 x190
      +36.8969224622025 x191 +120.144211466751 x192 +37.6621697356341 x193 +156.510290287216 x194 +110.520568960778 x195
      +260.763149737927 x196 +107.471100156749 x197 +178.739190144523 x198 +184.257499325791 x199 +44.4115614492445 x200
      +113.747512738241 x201 +31.9087510981631 x202 +73.3173937967417 x203 +39.4030393440334 x204 +100.631261598338 x205
      +103.926334968284 x206 +74.1981459744633 x207 +35.1009118609604 x208 +89.8762403386183 x209
Subject to
 c0: +1 x10 +1 x11 +1 x12 +1 x13 +1 x14 +1 x15 +1 x16 +1 x17 +1 x18 +1 x19 >= +1
 c1: +1 x20 +1 x21 +1 x22 +1 x23 +1 x24 +1 x25 +1 x26 +1 x27 +1 x28 +1 x29 >= +1
 c2: +1 x30 +1 x31 +1 x32 +1 x33 +1 x34 +1 x35 +1 x36 +1 x37 +1 x38 +1 x39 >= +1
 c3: +1 x40 +1 x41 +1 x42 +1 x43 +1 x44 +1 x45 +1 x46 +1 x47 +1 x48 +1 x49 >= +1
 c4: +1 x50 +1 x51 +1 x52 +1 x53 +1 x54 +1 x55 +1 x56 +1 x57 +1 x58 +1 x59 >= +1
 c5: +1 x60 +1 x61 +1 x62 +1 x63 +1 x64 +1 x65 +1 x66 +1 x67 +1 x68 +1 x69 >= +1
 c6: +1 x70 +1 x71 +1 x72 +1 x73 +1 x74 +1 x75 +1 x76 +1 x77 +1 x78 +1 x79 >= +1
 c7: +1 x80 +1 x81 +1 x82 +1 x83 +1 x84 +1 x85 +1 x86 +1 x87 +1 x88 +1 x89 >= +1
 c8: +1 x90 +1 x91 +1 x92 +1 x93 +1 x94 +1 x95 +1 x96 +1 x97 +1 x98 +1 x99 >= +1
 c9: +1 x100 +1 x101 +1 x102 +1 x103 +1 x104 +1 x105 +1 x106 +1 x107 +1 x108 +1 x109 >= +1
 c10: +1 x110 +1 x111 +1 x112 +1 x113 +1 x114 +1 x115 +1 x116 +1 x117 +1 x118 +1 x119 >= +1
 c11: +1 x120 +1 x121 +1 x122 +1 x123 +1 x124 +1 x125 +1 x126 +1 x127 +1 x128 +1 x129 >= +1
 c12: +1 x130 +1 x131 +1 x132 +1 x133 +1 x134 +1 x135 +1 x136 +1 x137 +1 x138 +1 x139 >= +1
 c13: +1 x140 +1 x141 +1 x142 +1 x143 +1 x144 +1 x145 +1 x146 +1 x147 +1 x148 +1 x149 >= +1
 c14: +1 x150 +1 x151 +1 x152 +1 x153 +1 x154 +1 x155 +1 x156 +1 x157 +1 x158 +1 x159 >= +1
 c15: +1 x160 +1 x161 +1 x162 +1 x163 +1 x164 +1 x165 +1 x166 +1 x167 +1 x168 +1 x169 >= +1
 c16: +1 x170 +1 x171 +1 x172 +1 x173 +1 x174 +1 x175 +1 x176 +1 x177 +1 x178 +1 x179 >= +1
 c17: +1 x180 +1 x181 +1 x182 +1 x183 +1 x184 +1 x185 +1 x186 +1 x187 +1 x188 +1 x189 >= +1
 c18: +1 x190 +1 x191 +1 x192 +1 x193 +1 x194 +1 x195 +1 x196 +1 x197 +1 x198 +1 x199 >= +1
 c19: +1 x200 +1 x201 +1 x202 +1 x203 +1 x204 +1 x205 +1 x206 +1 x207 +1 x208 +1 x209 >= +1
 c20: +17 x10 +8 x20 +28 x30 +14 x40 +16 x50 +6 x60 +14 x70 +17 x80 +35 x90 +12 x100 +15 x110 +8 x120
  +14 x130 +6 x140 +9 x150 +22 x160 +13 x170 +21 x180 +25 x190 +14 x200 -267 x0 <= +0
 c21: +17 x11 +8 x21 +28 x31 +14 x41 +16 x51 +6 x61 +14 x71 +17 x81 +35 x91 +12 x101 +15 x111 +8 x121
  +14 x131 +6 x141 +9 x151 +22 x161 +13 x171 +21 x181 +25 x191 +14 x201 -158 x1 <= +0
 c22: +17 x12 +8 x22 +28 x32 +14 x42 +16 x52 +6 x62 +14 x72 +17 x82 +35 x92 +12 x102 +15 x112 +8 x122
  +14 x132 +6 x142 +9 x152 +22 x162 +13 x172 +21 x182 +25 x192 +14 x202 -55 x2 <= +0
 c23: +17 x13 +8 x23 +28 x33 +14 x43 +16 x53 +6 x63 +14 x73 +17 x83 +35 x93 +12 x103 +15 x113 +8 x123
  +14 x133 +6 x143 +9 x153 +22 x163 +13 x173 +21 x183 +25 x193 +14 x203 -25 x3 <= +0
 c24: +17 x14 +8 x24 +28 x34 +14 x44 +16 x54 +6 x64 +14 x74 +17 x84 +35 x94 +12 x104 +15 x114 +8 x124
  +14 x134 +6 x144 +9 x154 +22 x164 +13 x174 +21 x184 +25 x194 +14 x204 -227 x4 <= +0
 c25: +17 x15 +8 x25 +28 x35 +14 x45 +16 x55 +6 x65 +14 x75 +17 x85 +35 x95 +12 x105 +15 x115 +8 x125
  +14 x135 +6 x145 +9 x155 +22 x165 +13 x175 +21 x185 +25 x195 +14 x205 -158 x5 <= +0
 c26: +17 x16 +8 x26 +28 x36 +14 x46 +16 x56 +6 x66 +14 x76 +17 x86 +35 x96 +12 x106 +15 x116 +8 x126
  +14 x136 +6 x146 +9 x156 +22 x166 +13 x176 +21 x186 +25 x196 +14 x206 -103 x6 <= +0
 c27: +17 x17 +8 x27 +28 x37 +14 x47 +16 x57 +6 x67 +14 x77 +17 x87 +35 x97 +12 x107 +15 x117 +8 x127
  +14 x137 +6 x147 +9 x157 +22 x167 +13 x177 +21 x187 +25 x197 +14 x207 -267 x7 <= +0
 c28: +17 x18 +8 x28 +28 x38 +14 x48 +16 x58 +6 x68 +14 x78 +17 x88 +35 x98 +12 x108 +15 x118 +8 x128
  +14 x138 +6 x148 +9 x158 +22 x168 +13 x178 +21 x188 +25 x198 +14 x208 -177 x8 <= +0
 c29: +17 x19 +8 x29 +28 x39 +14 x49 +16 x59 +6 x69 +14 x79 +17 x89 +35 x99 +12 x109 +15 x119 +8 x129
  +14 x139 +6 x149 +9 x159 +22 x169 +13 x179 +21 x189 +25 x199 +14 x209 -133 x9 <= +0
 c30: +267 x0 +158 x1 +55 x2 +25 x3 +227 x4 +158 x5 +103 x6 +267 x7 +177 x8 +133 x9 >= +314
 c31: +1 x10 -1 x0 <= +0
 c32: +1 x11 -1 x1 <= +0
 c33: +1 x12 -1 x2 <= +0
 c34: +1 x13 -1 x3 <= +0
 c35: +1 x14 -1 x4 <= +0
 c36: +1 x15 -1 x5 <= +0
 c37: +1 x16 -1 x6 <= +0
 c38: +1 x17 -1 x7 <= +0
 c39: +1 x18 -1 x8 <= +0
 c40: +1 x19 -1 x9 <= +0
 c41: +1 x20 -1 x0 <= +0
 c42: +1 x21 -1 x1 <= +0
 c43: +1 x22 -1 x2 <= +0
 c44: +1 x23 -1 x3 <= +0
 c45: +1 x24 -1 x4 <= +0
 c46: +1 x25 -1 x5 <= +0
 c47: +1 x26 -1 x6 <= +0
 c48: +1 x27 -1 x7 <= +0
 c49: +1 x28 -1 x8 <= +0
 c50: +1 x29 -1 x9 <= +0
 c51: +1 x30 -1 x0 <= +0
 c52: +1 x31 -1 x1 <= +0
 c53: +1 x32 -1 x2 <= +0
 c54: +1 x33 -1 x3 <= +0
 c55: +1 x34 -1 x4 <= +0
 c56: +1 x35 -1 x5 <= +0
 c57: +1 x36 -1 x6 <= +0
 c58: +1 x37 -1 x7 <= +0
 c59: +1 x38 -1 x8 <= +0
 c60: +1 x39 -1 x9 <= +0
 c61: +1 x40 -1 x0 <= +0
 c62: +1 x41 -1 x1 <= +0
 c63: +1 x42 -1 x2 <= +0
 c64: +1 x43 -1 x3 <= +0
 c65: +1 x44 -1 x4 <= +0
 c66: +1 x45 -1 x5 <= +0
 c67: +1 x46 -1 x6 <= +0
 c68: +1 x47 -1 x7 <= +0
 c69: +1 x48 -1 x8 <= +0
 c70: +1 x49 -1 x9 <= +0
 c71: +1 x50 -1 x0 <= +0
 c72: +1 x51 -1 x1 <= +0
 c73: +1 x52 -1 x2 <= +0
 c74: +1 x53 -1 x3 <= +0
 c75: +1 x54 -1 x4 <= +0
 c76: +1 x55 -1 x5 <= +0
 c77: +1 x56 -1 x6 <= +0
 c78: +1 x57 -1 x7 <= +0
 c79: +1 x58 -1 x8 <= +0
 c80: +1 x59 -1 x9 <= +0
 c81: +1 x60 -1 x0 <= +0
 c82: +1 x61 -1 x1 <= +0
 c83: +1 x62 -1 x2 <= +0
 c84: +1 x63 -1 x3 <= +0
 c85: +1 x64 -1 x4 <= +0
 c86: +1 x65 -1 x5 <= +0
 c87: +1 x66 -1 x6 <= +0
 c88: +1 x67 -1 x7 <= +0
 c89: +1 x68 -1 x8 <= +0
 c90: +1 x69 -1 x9 <= +0
 c91: +1 x70 -1 x0 <= +0
 c92: +1 x71 -1 x1 <= +0
 c93: +1 x72 -1 x2 <= +0
 c94: +1 x73 -1 x3 <= +0
 c95: +1 x74 -1 x4 <= +0
 c96: +1 x75 -1 x5 <= +0
 c97: +1 x76 -1 x6 <= +0
 c98: +1 x77 -1 x7 <= +0
 c99: +1 x78 -1 x8 <= +0
 c100: +1 x79 -1 x9 <= +0
 c101: +1 x80 -1 x0 <= +0
 c102: +1 x81 -1 x1 <= +0
 c103: +1 x82 -1 x2 <= +0
 c104: +1 x83 -1 x3 <= +0
 c105: +1 x84 -1 x4 <= +0
 c106: +1 x85 -1 x5 <= +0
 c107: +1 x86 -1 x6 <= +0
 c108: +1 x87 -1 x7 <= +0
 c109: +1 x88 -1 x8 <= +0
 c110: +1 x89 -1 x9 <= +0
 c111: +1 x90 -1 x0 <= +0
 c112: +1 x91 -1 x1 <= +0
 c113: +1 x92 -1 x2 <= +0
 c114: +1 x93 -1 x3 <= +0
 c115: +1 x94 -1 x4 <= +0
 c116: +1 x95 -1 x5 <= +0
 c117: +1 x96 -1 x6 <= +0
 c118: +1 x97 -1 x7 <= +0
 c119: +1 x98 -1 x8 <= +0
 c120: +1 x99 -1 x9 <= +0
 c121: +1 x100 -1 x0 <= +0
 c122: +1 x101 -1 x1 <= +0
 c123: +1 x102 -1 x2 <= +0
 c124: +1 x103 -1 x3 <= +0
 c125: +1 x104 -1 x4 <= +0
 c126: +1 x105 -1 x5 <= +0
 c127: +1 x106 -1 x6 <= +0
 c128: +1 x107 -1 x7 <= +0
 c129: +1 x108 -1 x8 <= +0
 c130: +1 x109 -1 x9 <= +0
 c131: +1 x110 -1 x0 <= +0
 c132: +1 x111 -1 x1 <= +0
 c133: +1 x112 -1 x2 <= +0
 c134: +1 x113 -1 x3 <= +0
 c135: +1 x114 -1 x4 <= +0
 c136: +1 x115 -1 x5 <= +0
 c137: +1 x116 -1 x6 <= +0
 c138: +1 x117 -1 x7 <= +0
 c139: +1 x118 -1 x8 <= +0
 c140: +1 x119 -1 x9 <= +0
 c141: +1 x120 -1 x0 <= +0
 c142: +1 x121 -1 x1 <= +0
 c143: +1 x122 -1 x2 <= +0
 c144: +1 x123 -1 x3 <= +0
 c145: +1 x124 -1 x4 <= +0
 c146: +1 x125 -1 x5 <= +0
 c147: +1 x126 -1 x6 <= +0
 c148: +1 x127 -1 x7 <= +0
 c149: +1 x128 -1 x8 <= +0
 c150: +1 x129 -1 x9 <= +0
 c151: +1 x130 -1 x0 <= +0
 c152: +1 x131 -1 x1 <= +0
 c153: +1 x132 -1 x2 <= +0
 c154: +1 x133 -1 x3 <= +0
 c155: +1 x134 -1 x4 <= +0
 c156: +1 x135 -1 x5 <= +0
 c157: +1 x136 -1 x6 <= +0
 c158: +1 x137 -1 x7 <= +0
 c159: +1 x138 -1 x8 <= +0
 c160: +1 x139 -1 x9 <= +0
 c161: +1 x140 -1 x0 <= +0
 c162: +1 x141 -1 x1 <= +0
 c163: +1 x142 -1 x2 <= +0
 c164: +1 x143 -1 x3 <= +0
 c165: +1 x144 -1 x4 <= +0
 c166: +1 x145 -1 x5 <= +0
 c167: +1 x146 -1 x6 <= +0
 c168: +1 x147 -1 x7 <= +0
 c169: +1 x148 -1 x8 <= +0
 c170: +1 x149 -1 x9 <= +0
 c171: +1 x150 -1 x0 <= +0
 c172: +1 x151 -1 x1 <= +0
 c173: +1 x152 -1 x2 <= +0
 c174: +1 x153 -1 x3 <= +0
 c175: +1 x154 -1 x4 <= +0
 c176: +1 x155 -1 x5 <= +0
 c177: +1 x156 -1 x6 <= +0
 c178: +1 x157 -1 x7 <= +0
 c179: +1 x158 -1 x8 <= +0
 c180: +1 x159 -1 x9 <= +0
 c181: +1 x160 -1 x0 <= +0
 c182: +1 x161 -1 x1 <= +0
 c183: +1 x162 -1 x2 <= +0
 c184: +1 x163 -1 x3 <= +0
 c185: +1 x164 -1 x4 <= +0
 c186: +1 x165 -1 x5 <= +0
 c187: +1 x166 -1 x6 <= +0
 c188: +1 x167 -1 x7 <= +0
 c189: +1 x168 -1 x8 <= +0
 c190: +1 x169 -1 x9 <= +0
 c191: +1 x170 -1 x0 <= +0
 c192: +1 x171 -1 x1 <= +0
 c193: +1 x172 -1 x2 <= +0
 c194: +1 x173 -1 x3 <= +0
 c195: +1 x174 -1 x4 <= +0
 c196: +1 x175 -1 x5 <= +0
 c197: +1 x176 -1 x6 <= +0
 c198: +1 x177 -1 x7 <= +0
 c199: +1 x178 -1 x8 <= +0
 c200: +1 x179 -1 x9 <= +0
 c201: +1 x180 -1 x0 <= +0
 c202: +1 x181 -1 x1 <= +0
 c203: +1 x182 -1 x2 <= +0
 c204: +1 x183 -1 x3 <= +0
 c205: +1 x184 -1 x4 <= +0
 c206: +1 x185 -1 x5 <= +0
 c207: +1 x186 -1 x6 <= +0
 c208: +1 x187 -1 x7 <= +0
 c209: +1 x188 -1 x8 <= +0
 c210: +1 x189 -1 x9 <= +0
 c211: +1 x190 -1 x0 <= +0
 c212: +1 x191 -1 x1 <= +0
 c213: +1 x192 -1 x2 <= +0
 c214: +1 x193 -1 x3 <= +0
 c215: +1 x194 -1 x4 <= +0
 c216: +1 x195 -1 x5 <= +0
 c217: +1 x196 -1 x6 <= +0
 c218: +1 x197 -1 x7 <= +0
 c219: +1 x198 -1 x8 <= +0
 c220: +1 x199 -1 x9 <= +0
 c221: +1 x200 -1 x0 <= +0
 c222: +1 x201 -1 x1 <= +0
 c223: +1 x202 -1 x2 <= +0
 c224: +1 x203 -1 x3 <= +0
 c225: +1 x204 -1 x4 <= +0
 c226: +1 x205 -1 x5 <= +0
 c227: +1 x206 -1 x6 <= +0
 c228: +1 x207 -1 x7 <= +0
 c229: +1 x208 -1 x8 <= +0
 c230: +1 x209 -1 x9 <= +0
Bounds
 0 <= x0 <= 1
 0 <= x1 <= 1
 0 <= x2 <= 1
 0 <= x3 <= 1
 0 <= x4 <= 1
 0 <= x5 <= 1
 0 <= x6 <= 1
 0 <= x7 <= 1
 0 <= x8 <= 1
 0 <= x9 <= 1
 0 <= x10 <= 1
 0 <= x11 <= 1
 0 <= x12 <= 1
 0 <= x13 <= 1
 0 <= x14 <= 1
 0 <= x15 <= 1
 0 <= x16 <= 1
 0 <= x17 <= 1
 0 <= x18 <= 1
 0 <= x19 <= 1
 0 <= x20 <= 1
 0 <= x21 <= 1
 0 <= x22 <= 1
 0 <= x23 <= 1
 0 <= x24 <= 1
 0 <= x25 <= 1
 0 <= x26 <= 1
 0 <= x27 <= 1
 0 <= x28 <= 1
 0 <= x29 <= 1
 0 <= x30 <= 1
 0 <= x31 <= 1
 0 <= x32 <= 1
 0 <= x33 <= 1
 0 <= x34 <= 1
 0 <= x35 <= 1
 0 <= x36 <= 1
 0 <= x37 <= 1
 0 <= x38 <= 1
 0 <= x39 <= 1
 0 <= x40 <= 1
 0 <= x41 <= 1
 0 <= x42 <= 1
 0 <= x43 <= 1
 0 <= x44 <= 1
 0 <= x45 <= 1
 0 <= x46 <= 1
 0 <= x47 <= 1
 0 <= x48 <= 1
 0 <= x49 <= 1
 0 <= x50 <= 1
 0 <= x51 <= 1
 0 <= x52 <= 1
 0 <= x53 <= 1
 0 <= x54 <= 1
 0 <= x55 <= 1
 0 <= x56 <= 1
 0 <= x57 <= 1
 0 <= x58 <= 1
 0 <= x59 <= 1
 0 <= x60 <= 1
 0 <= x61 <= 1
 0 <= x62 <= 1
 0 <= x63 <= 1
 0 <= x64 <= 1
 0 <= x65 <= 1
 0 <= x66 <= 1
 0 <= x67 <= 1
 0 <= x68 <= 1
 0 <= x69 <= 1
 0 <= x70 <= 1
 0 <= x71 <= 1
 0 <= x72 <= 1
 0 <= x73 <= 1
 0 <= x74 <= 1
 0 <= x75 <= 1
 0 <= x76 <= 1
 0 <= x77 <= 1
 0 <= x78 <= 1
 0 <= x79 <= 1
 0 <= x80 <= 1
 0 <= x81 <= 1
 0 <= x82 <= 1
 0 <= x83 <= 1
 0 <= x84 <= 1
 0 <= x85 <= 1
 0 <= x86 <= 1
 0 <= x87 <= 1
 0 <= x88 <= 1
 0 <= x89 <= 1
 0 <= x90 <= 1
 0 <= x91 <= 1
 0 <= x92 <= 1
 0 <= x93 <= 1
 0 <= x94 <= 1
 0 <= x95 <= 1
 0 <= x96 <= 1
 0 <= x97 <= 1
 0 <= x98 <= 1
 0 <= x99 <= 1
 0 <= x100 <= 1
 0 <= x101 <= 1
 0 <= x102 <= 1
 0 <= x103 <= 1
 0 <= x104 <= 1
 0 <= x105 <= 1
 0 <= x106 <= 1
 0 <= x107 <= 1
 0 <= x108 <= 1
 0 <= x109 <= 1
 0 <= x110 <= 1
 0 <= x111 <= 1
 0 <= x112 <= 1
 0 <= x113 <= 1
 0 <= x114 <= 1
 0 <= x115 <= 1
 0 <= x116 <= 1
 0 <= x117 <= 1
 0 <= x118 <= 1
 0 <= x119 <= 1
 0 <= x120 <= 1
 0 <= x121 <= 1
 0 <= x122 <= 1
 0 <= x123 <= 1
 0 <= x124 <= 1
 0 <= x125 <= 1
 0 <= x126 <= 1
 0 <= x127 <= 1
 0 <= x128 <= 1
 0 <= x129 <= 1
 0 <= x130 <= 1
 0 <= x131 <= 1
 0 <= x132 <= 1
 0 <= x133 <= 1
 0 <= x134 <= 1
 0 <= x135 <= 1
 0 <= x136 <= 1
 0 <= x137 <= 1
 0 <= x138 <= 1
 0 <= x139 <= 1
 0 <= x140 <= 1
 0 <= x141 <= 1
 0 <= x142 <= 1
 0 <= x143 <= 1
 0 <= x144 <= 1
 0 <= x145 <= 1
 0 <= x146 <= 1
 0 <= x147 <= 1
 0 <= x148 <= 1
 0 <= x149 <= 1
 0 <= x150 <= 1
 0 <= x151 <= 1
 0 <= x152 <= 1
 0 <= x153 <= 1
 0 <= x154 <= 1
 0 <= x155 <= 1
 0 <= x156 <= 1
 0 <= x157 <= 1
 0 <= x158 <= 1
 0 <= x159 <= 1
 0 <= x160 <= 1
 0 <= x161 <= 1
 0 <= x162 <= 1
 0 <= x163 <= 1
 0 <= x164 <= 1
 0 <= x165 <= 1
 0 <= x166 <= 1
 0 <= x167 <= 1
 0 <= x168 <= 1
 0 <= x169 <= 1
 0 <= x170 <= 1
 0 <= x171 <= 1
 0 <= x172 <= 1
 0 <= x173 <= 1
 0 <= x174 <= 1
 0 <= x175 <= 1
 0 <= x176 <= 1
 0 <= x177 <= 1
 0 <= x178 <= 1
 0 <= x179 <= 1
 0 <= x180 <= 1
 0 <= x181 <= 1
 0 <= x182 <= 1
 0 <= x183 <= 1
 0 <= x184 <= 1
 0 <= x185 <= 1
 0 <= x186 <= 1
 0 <= x187 <= 1
 0 <= x188 <= 1
 0 <= x189 <= 1
 0 <= x190 <= 1
 0 <= x191 <= 1
 0 <= x192 <= 1
 0 <= x193 <= 1
 0 <= x194 <= 1
 0 <= x195 <= 1
 0 <= x196 <= 1
 0 <= x197 <= 1
 0 <= x198 <= 1
 0 <= x199 <= 1
 0 <= x200 <= 1
 0 <= x201 <= 1
 0 <= x202 <= 1
 0 <= x203 <= 1
 0 <= x204 <= 1
 0 <= x205 <= 1
 0 <= x206 <= 1
 0 <= x207 <= 1
 0 <= x208 <= 1
 0 <= x209 <= 1
Binaries
 x0 x1 x2 x3 x4 x5 x6 x7 x8 x9 x10 x11 x12 x13 x14 x15 x16 x17 x18 x19 x20 x21 x22 x23 x24 x25 x26 x27
 x28 x29 x30 x31 x32 x33 x34 x35 x36 x37 x38 x39 x40 x41 x42 x43 x44 x45 x46 x47 x48 x49 x50 x51 x52 x53
 x54 x55 x56 x57 x58 x59 x60 x61 x62 x63 x64 x65 x66 x67 x68 x69 x70 x71 x72 x73 x74 x75 x76 x77 x78 x79
 x80 x81 x82 x83 x84 x85 x86 x87 x88 x89 x90 x91 x92 x93 x94 x95 x96 x97 x98 x99 x100 x101 x102 x103 x104
 x105 x106 x107 x108 x109 x110 x111 x112 x113 x114 x115 x116 x117 x118 x119 x120 x121 x122 x123 x124 x125
 x126 x127 x128 x129 x130 x131 x132 x133 x134 x135 x136 x137 x138 x139 x140 x141 x142 x143 x144 x145 x146
 x147 x148 x149 x150 x151 x152 x153 x154 x155 x156 x157 x158 x159 x160 x161 x162 x163 x164 x165 x166 x167
 x168 x169 x170 x171 x172 x173 x174 x175 x176 x177 x178 x179 x180 x181 x182 x183 x184 x185 x186 x187 x188
 x189 x190 x191 x192 x193 x194 x195 x196 x197 x198 x199 x200 x201 x202 x203 x204 x205 x206 x207 x208 x209
End
